# wb97xd/6-31+g(d) geom=nocrowd 6D

Title Card Required

-2 1
 N                0   -5.538962    1.155801   -0.617092
 C                0   -4.459097    1.623470   -1.472199
 C                0   -3.268421    0.701137   -1.260860
 O                0   -3.150196    0.212213   -0.134344
 C                0   -4.019881    3.040705   -1.096582
 C                0   -5.187302    3.972114   -0.891649
 C                0   -5.750899    4.267961    0.347557
 C                0   -5.739154    4.567950   -2.030144
 C                0   -6.836054    5.148075    0.445013
 C                0   -6.804692    5.424674   -1.993540
 C                0   -7.320841    5.691858   -0.726287
 O                0   -8.439094    6.543119   -0.616164
 H                0   -6.352315    1.775902   -0.687388
 H                0   -5.852763    0.218514   -0.891175
 H                0   -5.264694    1.107674    0.384037
 H                0   -4.823194    1.591683   -2.502215
 H                0   -3.433324    2.983023   -0.172469
 H                0   -3.361761    3.406285   -1.888484
 H                0   -5.338031    3.817634    1.248797
 H                0   -5.292284    4.334378   -2.995290
 H                0   -7.282506    5.385787    1.405150
 H                0   -7.230004    5.880782   -2.880539
 H                0   -8.677478    6.631042    0.317858
 N                0   -2.397380    0.478009   -2.221262
 C                0   -1.153244   -0.206375   -1.969930
 C                0   -0.059079    0.808310   -1.676890
 O                0    0.064138    1.833189   -2.298695
 C-Bq             0   -0.759422   -1.100113   -3.122836
 C-Bq             0   -1.627880   -2.287835   -3.374003
 C-Bq             0   -2.595289   -2.280765   -4.361499
 C-Bq             0   -1.483124   -3.458102   -2.652535
 C-Bq             0   -3.382666   -3.395073   -4.596152
 C-Bq             0   -2.251806   -4.577418   -2.913720
 C-Bq             0   -3.231464   -4.562483   -3.861303
 O-Bq             0   -3.942435   -5.686899   -4.100135
 H                0   -2.523531    0.931879   -3.120065
 H                0   -1.305638   -0.824924   -1.083329
 H-Bq             0   -0.697646   -0.489442   -4.033216
 H-Bq             0    0.262437   -1.445220   -2.919160
 H-Bq             0   -2.749533   -1.393132   -4.970712
 H-Bq             0   -0.724201   -3.514110   -1.873601
 H-Bq             0   -4.138119   -3.358063   -5.378463
 H-Bq             0   -2.078704   -5.480463   -2.329318
 H-Bq             0   -3.675783   -6.382109   -3.481818
 N                0    0.761727    0.471609   -0.680746
 C                0    1.887860    1.295573   -0.270664
 C                0    3.052698    1.181616   -1.263006
 O                0    3.381080    0.061906   -1.654432
 C                0    2.319337    0.856208    1.115640
 C                0    3.388553    1.705656    1.699520
 O                0    4.564212    1.596313    1.350507
 O                0    2.959812    2.560899    2.578062
 H                0    0.582905   -0.385362   -0.157403
 H                0    1.543159    2.332575   -0.229951
 H                0    1.441413    0.879310    1.763982
 H                0    2.669478   -0.182328    1.052508
 N                0    3.650040    2.278381   -1.668400
 C                0    4.681940    2.207527   -2.710287
 C                0    5.993168    1.592343   -2.268725
 O                0    6.775556    1.195160   -3.137054
 C                0    4.885347    3.690954   -3.121883
 C                0    4.486879    4.418626   -1.903928
 C                0    3.348502    3.673029   -1.297953
 H                0    4.323571    1.598065   -3.542670
 H                0    5.910819    3.886873   -3.441523
 H                0    4.217649    3.910790   -3.961326
 H                0    5.321272    4.440364   -1.190901
 H                0    4.217267    5.460997   -2.099353
 H                0    3.298578    3.789711   -0.213581
 H                0    2.383450    3.962788   -1.729692
 N                0    6.258783    1.572308   -0.961184
 C                0    7.462295    1.007948   -0.392513
 C                0    7.296162   -0.443822   -0.014485
 O                0    8.232499   -1.252677   -0.218979
 C                0    7.983422    1.838438    0.813271
 C                0    8.712453    3.084320    0.425289
 C                0   10.031863    2.947657   -0.288413
 O                0   10.412248    3.851733   -1.083566
 O                0   10.738431    1.956195   -0.018419
 H                0    5.528982    1.859671   -0.309337
 H                0    8.225135    1.012908   -1.174963
 H                0    7.133294    2.086618    1.457345
 H                0    8.642208    1.188569    1.400273
 H                0    8.059001    3.737154   -0.167654
 H                0    8.930370    3.653636    1.340291
 N                0    6.156030   -0.816426    0.555424
 C                0    5.988644   -2.154769    1.081220
 C                0    5.092923   -3.012815    0.207838
 O                0    5.082526   -4.240657    0.354331
 C                0    5.387156   -2.170634    2.477601
 O                0    4.079197   -1.615425    2.421551
 C                0    6.179161   -1.308157    3.460300
 H                0    5.460624   -0.102499    0.795553
 H                0    6.965425   -2.640023    1.107891
 H                0    5.348941   -3.210292    2.815929
 H                0    3.398660   -2.266743    2.680426
 H                0    5.747896   -1.407826    4.460777
 H                0    7.231456   -1.612440    3.500561
 H                0    6.132714   -0.255188    3.164124
 N                0    4.294678   -2.448623   -0.697391
 C                0    3.409391   -3.210996   -1.549599
 C                0    2.244078   -3.830228   -0.843466
 O                0    1.586983   -4.717636   -1.390764
 H                0    4.246543   -1.435876   -0.787528
 H                0    3.017045   -2.538881   -2.316786
 H                0    3.952502   -4.015802   -2.051484
 N                0    1.897918   -3.411655    0.333231
 C                0    0.839084   -3.917467    1.130875
 C                0   -0.357256   -2.956303    1.091538
 O                0   -0.213588   -1.730485    0.877143
 C                0    1.248729   -4.187202    2.576531
 O                0    1.790450   -2.991480    3.144128
 C                0    2.311444   -5.271071    2.662738
 H                0    2.441429   -2.658689    0.746010
 H                0    0.516075   -4.868915    0.699042
 H                0    0.357345   -4.488863    3.137485
 H                0    1.104226   -2.310515    3.212439
 H                0    2.574212   -5.454218    3.708877
 H                0    1.930296   -6.200505    2.229622
 H                0    3.215166   -4.973902    2.120291
 N                0   -1.517155   -3.488646    1.293454
 C                0   -2.781728   -2.752439    1.251908
 C                0   -2.976651   -2.030869    2.573173
 O                0   -2.818727   -2.645355    3.641888
 C                0   -3.915008   -3.693231    1.009207
 C                0   -5.252127   -3.027494    0.834041
 C                0   -6.212581   -2.863489    1.754038
 C                0   -5.730738   -2.431117   -0.373453
 N                0   -7.283038   -2.197855    1.206637
 C                0   -7.013142   -1.939763   -0.112943
 C                0   -5.234800   -2.270979   -1.668718
 C                0   -7.783833   -1.315189   -1.084282
 C                0   -5.987701   -1.649411   -2.637240
 C                0   -7.264203   -1.160321   -2.335472
 H                0   -1.574341   -4.484528    1.480205
 H                0   -2.714079   -2.027260    0.436411
 H                0   -3.683473   -4.269391    0.103944
 H                0   -3.969776   -4.412864    1.835897
 H                0   -6.232882   -3.169079    2.791940
 H                0   -8.144663   -1.981611    1.687168
 H                0   -4.235974   -2.631677   -1.910258
 H                0   -8.773679   -0.939180   -0.838150
 H                0   -5.579533   -1.522734   -3.635942
 H                0   -7.846223   -0.659561   -3.103807
 N                0   -3.347440   -0.756294    2.538981
 C                0   -3.675863   -0.015239    3.728323
 C                0   -4.917205    0.839116    3.541022
 O                0   -5.338951    1.341129    4.606427
 C                0   -2.476583    0.848554    4.204731
 C                0   -2.180318    1.969770    3.272815
 C                0   -2.672275    3.268193    3.437267
 C                0   -1.387589    1.779302    2.144537
 C                0   -2.403774    4.291408    2.578188
 C                0   -1.125640    2.807372    1.267416
 C                0   -1.623919    4.074935    1.463436
 O                0   -1.388432    5.094951    0.611150
 O                0   -5.398763    1.005360    2.405098
 H                0   -3.450487   -0.296679    1.637070
 H                0   -3.894077   -0.741271    4.514568
 H                0   -2.708296    1.227535    5.204541
 H                0   -1.610880    0.183676    4.293339
 H                0   -3.293108    3.477324    4.307672
 H                0   -0.958431    0.801012    1.939636
 H                0   -2.814561    5.281084    2.769365
 H                0   -0.523793    2.617114    0.383393
 H                0   -1.850804    5.889353    0.914455
 H                0   -0.892603604 -0.797871225 -2.732949528
 H-Bq             0   -3.54091497  -3.3826778    1.089322022

