# wb97xd/6-31+g(d) geom=nocrowd 6D

Title Card Required

0 1
 C-Bq             0   -0.759422   -1.100113   -3.122836
 C-Bq             0   -1.627880   -2.287835   -3.374003
 C-Bq             0   -2.595289   -2.280765   -4.361499
 C-Bq             0   -1.483124   -3.458102   -2.652535
 C-Bq             0   -3.382666   -3.395073   -4.596152
 C-Bq             0   -2.251806   -4.577418   -2.913720
 C-Bq             0   -3.231464   -4.562483   -3.861303
 O-Bq             0   -3.942435   -5.686899   -4.100135
 H-Bq             0   -0.697646   -0.489442   -4.033216
 H-Bq             0    0.262437   -1.445220   -2.919160
 H-Bq             0   -2.749533   -1.393132   -4.970712
 H-Bq             0   -0.724201   -3.514110   -1.873601
 H-Bq             0   -4.138119   -3.358063   -5.378463
 H-Bq             0   -2.078704   -5.480463   -2.329318
 H-Bq             0   -3.675783   -6.382109   -3.481818
 H                0   -1.020062396 -0.508616775 -2.359816472
 C-Bq             0   -3.915008   -3.693231    1.009207
 C-Bq             0   -5.252127   -3.027494    0.834041
 C-Bq             0   -6.212581   -2.863489    1.754038
 C-Bq             0   -5.730738   -2.431117   -0.373453
 N-Bq             0   -7.283038   -2.197855    1.206637
 C-Bq             0   -7.013142   -1.939763   -0.112943
 C-Bq             0   -5.234800   -2.270979   -1.668718
 C-Bq             0   -7.783833   -1.315189   -1.084282
 C-Bq             0   -5.987701   -1.649411   -2.637240
 C-Bq             0   -7.264203   -1.160321   -2.335472
 H-Bq             0   -3.683473   -4.269391    0.103944
 H-Bq             0   -3.969776   -4.412864    1.835897
 H-Bq             0   -6.232882   -3.169079    2.791940
 H-Bq             0   -8.144663   -1.981611    1.687168
 H-Bq             0   -4.235974   -2.631677   -1.910258
 H-Bq             0   -8.773679   -0.939180   -0.838150
 H-Bq             0   -5.579533   -1.522734   -3.635942
 H-Bq             0   -7.846223   -0.659561   -3.103807
 H                0   -3.15582103 -3.0629922 1.171792978
 H                0   -0.826771478 -0.947270375 -2.925671754
 H                0   -3.718834087 -3.530377294 1.051219217

