# oniom(wb97xd/gen:amber=hardfirst)=embedcharge 
geom=(connectivity,nocrowd) 6D

5AWL_CPNFA_ONIOM

-2 1 0 1 0 1
 N-N3-0.194000    0    -5.538962    1.155801   -0.617092 L
 C-CT-0.057000    0    -4.459097    1.623470   -1.472199 L H-HA 3
 C-C-0.612300     0    -3.268421    0.701137   -1.260860 H
 O-O--0.571300    0    -3.150196    0.212213   -0.134344 H
 C-CT-0.065900    0    -4.019881    3.040705   -1.096582 L
 C-CA--0.020500   0    -5.187302    3.972114   -0.891649 L
 C-CA--0.200200   0    -5.750899    4.267961    0.347557 L
 C-CA--0.200200   0    -5.739154    4.567950   -2.030144 L
 C-CA--0.223900   0    -6.836054    5.148075    0.445013 L
 C-CA--0.223900   0    -6.804692    5.424674   -1.993540 L
 C-C-0.313900     0    -7.320841    5.691858   -0.726287 L
 O-OH--0.557800   0    -8.439094    6.543119   -0.616164 L
 H-H-0.187300     0    -6.352315    1.775902   -0.687388 L
 H-H-0.187300     0    -5.852763    0.218514   -0.891175 L
 H-H-0.187300     0    -5.264694    1.107674    0.384037 L
 H-HP-0.098300    0    -4.823194    1.591683   -2.502215 L
 H-HC-0.010200    0    -3.433324    2.983023   -0.172469 L
 H-HC-0.010200    0    -3.361761    3.406285   -1.888484 L
 H-HA-0.172000    0    -5.338031    3.817634    1.248797 L
 H-HA-0.172000    0    -5.292284    4.334378   -2.995290 L
 H-HA-0.165000    0    -7.282506    5.385787    1.405150 L
 H-HA-0.165000    0    -7.230004    5.880782   -2.880539 L
 H-HO-0.400100    0    -8.677478    6.631042    0.317858 L
 N-N--0.415700    0    -2.397380    0.478009   -2.221262 H
 C-CT--0.001400   0    -1.153244   -0.206375   -1.969930 H
 C-C-0.597300     0    -0.059079    0.808310   -1.676890 H
 O-O--0.567900    0     0.064138    1.833189   -2.298695 H
 Bq-Q-0.0000000   0    -0.759422   -1.100113   -3.122836 H
 Bq-Q-0.0000000   0    -1.627880   -2.287835   -3.374003 H
 Bq-Q-0.0000000   0    -2.595289   -2.280765   -4.361499 H
 Bq-Q-0.0000000   0    -1.483124   -3.458102   -2.652535 H
 Bq-Q-0.0000000   0    -3.382666   -3.395073   -4.596152 H
 Bq-Q-0.0000000   0    -2.251806   -4.577418   -2.913720 H
 Bq-Q-0.0000000   0    -3.231464   -4.562483   -3.861303 H
 Bq-Q-0.0000000   0    -3.942435   -5.686899   -4.100135 H
 H-H-0.271900     0    -2.523531    0.931879   -3.120065 H
 H-H1-0.087600    0    -1.305638   -0.824924   -1.083329 H
 Bq-Q-0.000000    0    -0.697646   -0.489442   -4.033216 H
 Bq-Q-0.000000    0     0.262437   -1.445220   -2.919160 H
 Bq-Q-0.000000    0    -2.749533   -1.393132   -4.970712 H
 Bq-Q-0.000000    0    -0.724201   -3.514110   -1.873601 H
 Bq-Q-0.000000    0    -4.138119   -3.358063   -5.378463 H
 Bq-Q-0.000000    0    -2.078704   -5.480463   -2.329318 H
 Bq-Q-0.000000    0    -3.675783   -6.382109   -3.481818 H
 N-N--0.516300    0     0.761727    0.471609   -0.680746 H
 C-CT-0.038100    0     1.887860    1.295573   -0.270664 L H-H 45
 C-C-0.536600     0     3.052698    1.181616   -1.263006 L
 O-O--0.581900    0     3.381080    0.061906   -1.654432 L
 C-CT--0.030300   0     2.319337    0.856208    1.115640 L
 C-C-0.799400     0     3.388553    1.705656    1.699520 L
 O-O2--0.801400   0     4.564212    1.596313    1.350507 L
 O-O2--0.801400   0     2.959812    2.560899    2.578062 L
 H-H-0.293600     0     0.582905   -0.385362   -0.157403 H
 H-H1-0.088000    0     1.543159    2.332575   -0.229951 L
 H-HC--0.012200   0     1.441413    0.879310    1.763982 L
 H-HC--0.012200   0     2.669478   -0.182328    1.052508 L
 N-N--0.254800    0     3.650040    2.278381   -1.668400 L
 C-CT--0.026600   0     4.681940    2.207527   -2.710287 L
 C-C-0.589600     0     5.993168    1.592343   -2.268725 L
 O-O--0.574800    0     6.775556    1.195160   -3.137054 L
 C-CT--0.007000   0     4.885347    3.690954   -3.121883 L
 C-CT-0.018900    0     4.486879    4.418626   -1.903928 L
 C-CT-0.019200    0     3.348502    3.673029   -1.297953 L
 H-H1-0.064100    0     4.323571    1.598065   -3.542670 L
 H-HC-0.025300    0     5.910819    3.886873   -3.441523 L
 H-HC-0.025300    0     4.217649    3.910790   -3.961326 L
 H-HC-0.021300    0     5.321272    4.440364   -1.190901 L
 H-HC-0.021300    0     4.217267    5.460997   -2.099353 L
 H-H1-0.039100    0     3.298578    3.789711   -0.213581 L
 H-H1-0.039100    0     2.383450    3.962788   -1.729692 L
 N-N--0.516300    0     6.258783    1.572308   -0.961184 L
 C-CT-0.039700    0     7.462295    1.007948   -0.392513 L
 C-C-0.536600     0     7.296162   -0.443822   -0.014485 L
 O-O--0.581900    0     8.232499   -1.252677   -0.218979 L
 C-CT-0.056000    0     7.983422    1.838438    0.813271 L
 C-CT-0.013600    0     8.712453    3.084320    0.425289 L
 C-C-0.805400     0    10.031863    2.947657   -0.288413 L
 O-O2--0.818800   0    10.412248    3.851733   -1.083566 L
 O-O2--0.818800   0    10.738431    1.956195   -0.018419 L
 H-H-0.293600     0     5.528982    1.859671   -0.309337 L
 H-H1-0.110500    0     8.225135    1.012908   -1.174963 L
 H-HC--0.017300   0     7.133294    2.086618    1.457345 L
 H-HC--0.017300   0     8.642208    1.188569    1.400273 L
 H-HC--0.042500   0     8.059001    3.737154   -0.167654 L
 H-HC--0.042500   0     8.930370    3.653636    1.340291 L
 N-N--0.415700    0     6.156030   -0.816426    0.555424 L
 C-CT--0.038900   0     5.988644   -2.154769    1.081220 L
 C-C-0.597300     0     5.092923   -3.012815    0.207838 L
 O-O--0.567900    0     5.082526   -4.240657    0.354331 L
 C-CT-0.365400    0     5.387156   -2.170634    2.477601 L
 O-OH--0.676100   0     4.079197   -1.615425    2.421551 L
 C-CT--0.243800   0     6.179161   -1.308157    3.460300 L
 H-H-0.271900     0     5.460624   -0.102499    0.795553 L
 H-H1-0.100700    0     6.965425   -2.640023    1.107891 L
 H-H1-0.004300    0     5.348941   -3.210292    2.815929 L
 H-HO-0.410200    0     3.398660   -2.266743    2.680426 L
 H-HC-0.064200    0     5.747896   -1.407826    4.460777 L
 H-HC-0.064200    0     7.231456   -1.612440    3.500561 L
 H-HC-0.064200    0     6.132714   -0.255188    3.164124 L
 N-N--0.415700    0     4.294678   -2.448623   -0.697391 L
 C-CT--0.025200   0     3.409391   -3.210996   -1.549599 L
 C-C-0.597300     0     2.244078   -3.830228   -0.843466 L
 O-O--0.567900    0     1.586983   -4.717636   -1.390764 L
 H-H-0.271900     0     4.246543   -1.435876   -0.787528 L
 H-H1-0.069800    0     3.017045   -2.538881   -2.316786 L
 H-H1-0.069800    0     3.952502   -4.015802   -2.051484 L
 N-N--0.415700    0     1.897918   -3.411655    0.333231 L
 C-CT--0.038900   0     0.839084   -3.917467    1.130875 L H-HA 109
 C-C-0.597300     0    -0.357256   -2.956303    1.091538 H
 O-O--0.567900    0    -0.213588   -1.730485    0.877143 H
 C-CT-0.365400    0     1.248729   -4.187202    2.576531 L
 O-OH--0.676100   0     1.790450   -2.991480    3.144128 L
 C-CT--0.243800   0     2.311444   -5.271071    2.662738 L
 H-H-0.271900     0     2.441429   -2.658689    0.746010 L
 H-H1-0.100700    0     0.516075   -4.868915    0.699042 L
 H-H1-0.004300    0     0.357345   -4.488863    3.137485 L
 H-HO-0.410200    0     1.104226   -2.310515    3.212439 L
 H-HC-0.064200    0     2.574212   -5.454218    3.708877 L
 H-HC-0.064200    0     1.930296   -6.200505    2.229622 L
 H-HC-0.064200    0     3.215166   -4.973902    2.120291 L
 N-N--0.415700    0    -1.517155   -3.488646    1.293454 H
 C-CT--0.027500   0    -2.781728   -2.752439    1.251908 H
 C-C-0.597300     0    -2.976651   -2.030869    2.573173 H
 O-O--0.567900    0    -2.818727   -2.645355    3.641888 H
 Bq-Q-0.0000000   0    -3.915008   -3.693231    1.009207 H
 Bq-Q-0.0000000   0    -5.252127   -3.027494    0.834041 H
 Bq-Q-0.0000000   0    -6.212581   -2.863489    1.754038 H
 Bq-Q-0.0000000   0    -5.730738   -2.431117   -0.373453 H
 Bq-Q-0.0000000   0    -7.283038   -2.197855    1.206637 H
 Bq-Q-0.0000000   0    -7.013142   -1.939763   -0.112943 H
 Bq-Q-0.0000000   0    -5.234800   -2.270979   -1.668718 H
 Bq-Q-0.0000000   0    -7.783833   -1.315189   -1.084282 H
 Bq-Q-0.0000000   0    -5.987701   -1.649411   -2.637240 H
 Bq-Q-0.0000000   0    -7.264203   -1.160321   -2.335472 H
 H-H-0.271900     0    -1.574341   -4.484528    1.480205 H
 H-H1-0.112300    0    -2.714079   -2.027260    0.436411 H
 Bq-Q-0.0000000   0    -3.683473   -4.269391    0.103944 H
 Bq-Q-0.0000000   0    -3.969776   -4.412864    1.835897 H
 Bq-Q-0.0000000   0    -6.232882   -3.169079    2.791940 H
 Bq-Q-0.0000000   0    -8.144663   -1.981611    1.687168 H
 Bq-Q-0.0000000   0    -4.235974   -2.631677   -1.910258 H
 Bq-Q-0.0000000   0    -8.773679   -0.939180   -0.838150 H
 Bq-Q-0.0000000   0    -5.579533   -1.522734   -3.635942 H
 Bq-Q-0.0000000   0    -7.846223   -0.659561   -3.103807 H
 N-N--0.382100    0    -3.347440   -0.756294    2.538981 H
 C-CT--0.201500   0    -3.675863   -0.015239    3.728323 L H-H 145
 C-C-0.781700     0    -4.917205    0.839116    3.541022 L
 O-O2--0.807000   0    -5.338951    1.341129    4.606427 L
 C-CT--0.075200   0    -2.476583    0.848554    4.204731 L
 C-CA-0.024300    0    -2.180318    1.969770    3.272815 L
 C-CA--0.192200   0    -2.672275    3.268193    3.437267 L
 C-CA--0.192200   0    -1.387589    1.779302    2.144537 L
 C-CA--0.245800   0    -2.403774    4.291408    2.578188 L
 C-CA--0.245800   0    -1.125640    2.807372    1.267416 L
 C-C-0.339500     0    -1.623919    4.074935    1.463436 L
 O-OH--0.564300   0    -1.388432    5.094951    0.611150 L
 O-O2--0.807000   0    -5.398763    1.005360    2.405098 L
 H-H-0.268100     0    -3.450487   -0.296679    1.637070 H
 H-H1-0.109200    0    -3.894077   -0.741271    4.514568 L
 H-HC-0.049000    0    -2.708296    1.227535    5.204541 L
 H-HC-0.049000    0    -1.610880    0.183676    4.293339 L
 H-HA-0.178000    0    -3.293108    3.477324    4.307672 L
 H-HA-0.178000    0    -0.958431    0.801012    1.939636 L
 H-HA-0.167300    0    -2.814561    5.281084    2.769365 L
 H-HA-0.167300    0    -0.523793    2.617114    0.383393 L
 H-HO-0.401700    0    -1.850804    5.889353    0.914455 L
 H-H1-0.000000    0    -0.892603604 -0.797871225 -2.732949528 H
 H-H1-0.000000    0    -3.54091497 -3.3826778 1.089322022 H

 1 2 1.0 13 1.0 14 1.0 15 1.0
 2 3 1.0 5 1.0 16 1.0
 3 24 1.0 4 2.0
 4
 5 17 1.0 18 1.0 6 1.0
 6 7 1.5 8 1.5
 7 9 1.5 19 1.0
 8 10 1.5 20 1.0
 9 11 1.5 21 1.0
 10 11 1.5 22 1.0
 11 12 1.0
 12 23 1.0
 13
 14
 15
 16
 17
 18
 19
 20
 21
 22
 23
 24 25 1.0 36 1.0
 25 167 1.0 26 1.0 37 1.0
 26 27 2.0 45 1.0
 27
 28
 29
 30
 31
 32
 33
 34
 35
 36
 37
 38
 39
 40
 41
 42
 43
 44
 45 46 1.0 53 1.0
 46 47 1.0 49 1.0 54 1.0
 47 48 2.0 57 1.0
 48
 49 50 1.0 55 1.0 56 1.0
 50 51 1.5 52 1.5
 51
 52
 53
 54
 55
 56
 57 58 1.0 63 1.0
 58 59 1.0 64 1.0 61 1.0
 59 60 2.0 71 1.0
 60
 61 62 1.0 65 1.0 66 1.0
 62 63 1.0 67 1.0 68 1.0
 63 70 1.0 69 1.0
 64
 65
 66
 67
 68
 69
 70
 71 72 1.0 80 1.0
 72 81 1.0 75 1.0 73 1.0
 73 74 2.0 86 1.0
 74
 75 83 1.0 76 1.0 82 1.0
 76 77 1.0 84 1.0 85 1.0
 77 79 1.5 78 1.5
 78
 79
 80
 81
 82
 83
 84
 85
 86 87 1.0 93 1.0
 87 88 1.0 90 1.0 94 1.0
 88 100 1.0 89 2.0
 89
 90 95 1.0 91 1.0 92 1.0
 91 96 1.0
 92 98 1.0 97 1.0 99 1.0
 93
 94
 95
 96
 97
 98
 99
 100 101 1.0 104 1.0
 101 106 1.0 105 1.0 102 1.0
 102 107 1.0 103 2.0
 103
 104
 105
 106
 107 114 1.0 108 1.0
 108 111 1.0 115 1.0 109 1.0
 109 121 1.0 110 2.0
 110
 111 113 1.0 112 1.0 116 1.0
 112 117 1.0
 113 118 1.0 119 1.0 120 1.0
 114
 115
 116
 117
 118
 119
 120
 121 135 1.0 122 1.0
 122 168 1.0 123 1.0 136 1.0
 123 124 2.0 145 1.0
 124
 125
 126
 127
 128
 129
 130
 131
 132
 133
 134
 135
 136
 137
 138
 139
 140
 141
 142
 143
 144
 145 158 1.0 146 1.0
 146 147 1.0 149 1.0 159 1.0
 147 148 2.0 157 2.0
 148
 149 150 1.0 160 1.0 161 1.0
 150 152 1.5 151 1.5
 151 153 1.5 162 1.0
 152 163 1.0 154 1.5
 153 155 1.5 164 1.0
 154 165 1.0 155 1.5
 155 156 1.0
 156 166 1.0
 157
 158
 159
 160
 161
 162
 163
 164
 165
 166
 167
 168

HrmStr1 C  HA  325.1    1.1010
HrmBnd1 HA C  O    54.27      121.94
HrmBnd1 HA C  N    52.40      112.37
VDW Q 0.0 0.0

C 0
6-31+G(d)
****
H 0
6-31+G(d)
****
O 0
6-31+G(d)
****
N 0
6-31+G(d)
****
28 29 30 31 32 33 34 125 126 127 128 130 131 132 133 134 0
S    6   1.00
      0.3047524880D+04       0.1834737132D-02
      0.4573695180D+03       0.1403732281D-01
      0.1039486850D+03       0.6884262226D-01
      0.2921015530D+02       0.2321844432D+00
      0.9286662960D+01       0.4679413484D+00
      0.3163926960D+01       0.3623119853D+00
SP   3   1.00
      0.7868272350D+01      -0.1193324198D+00       0.6899906659D-01
      0.1881288540D+01      -0.1608541517D+00       0.3164239610D+00
      0.5442492580D+00       0.1143456438D+01       0.7443082909D+00
SP   1   1.00
      0.1687144782D+00       0.1000000000D+01       0.1000000000D+01
SP   1   1.00
      0.4380000000D-01       0.1000000000D+01       0.1000000000D+01
D    1   1.00
      0.8000000000D+00       1.0000000
****
35 0
S    6   1.00
      0.5484671660D+04       0.1831074430D-02
      0.8252349460D+03       0.1395017220D-01
      0.1880469580D+03       0.6844507810D-01
      0.5296450000D+02       0.2327143360D+00
      0.1689757040D+02       0.4701928980D+00
      0.5799635340D+01       0.3585208530D+00
SP   3   1.00
      0.1553961625D+02      -0.1107775495D+00       0.7087426823D-01
      0.3599933586D+01      -0.1480262627D+00       0.3397528391D+00
      0.1013761750D+01       0.1130767015D+01       0.7271585773D+00
SP   1   1.00
      0.2700058226D+00       0.1000000000D+01       0.1000000000D+01
SP   1   1.00
      0.8450000000D-01       0.1000000000D+01       0.1000000000D+01
D    1   1.00
      0.8000000000D+00       1.0000000
****
129 0
S    6   1.00
      0.4173511460D+04       0.1834772160D-02
      0.6274579110D+03       0.1399462700D-01
      0.1429020930D+03       0.6858655181D-01
      0.4023432930D+02       0.2322408730D+00
      0.1282021290D+02       0.4690699481D+00
      0.4390437010D+01       0.3604551991D+00
SP   3   1.00
      0.1162636186D+02      -0.1149611817D+00       0.6757974388D-01
      0.2716279807D+01      -0.1691174786D+00       0.3239072959D+00
      0.7722183966D+00       0.1145851947D+01       0.7408951398D+00
SP   1   1.00
      0.2120314975D+00       0.1000000000D+01       0.1000000000D+01
SP   1   1.00
      0.6390000000D-01       0.1000000000D+01       0.1000000000D+01
D    1   1.00
      0.8000000000D+00       1.0000000
****
38 39 40 41 42 43 44 137 138 139 140 141 142 143 144 0
S    3   1.00
      0.1873113696D+02       0.3349460434D-01
      0.2825394365D+01       0.2347269535D+00
      0.6401216923D+00       0.8137573261D+00
S    1   1.00
      0.1612777588D+00       1.0000000
****

